193 300 177 116 134 132 147 182 179 193 194 145 162 156 105 126 152 111 158 132 195 138 179 108 117 116 130 113 106 166 101 113 154 144 129 188 176 176 136 121 169 129 166 130 151 171 122 102 148 181 100 142 185 146 117 169 128 113 182 134 179 183 113 199 193 143 152 135 185 188 156 119 116 121 115 134 158 138 136 105 185 103 113 169 149 130 137 177 143 119 178 188 168 191 186 127 200 138 162 151 192 117 170 175 104 152 108 162 190 110 133 174 113 146 108 128 177 146 172 186 131 115 174 165 105 125 192 172 129 119 189 121 136 158 196 106 109 170 168 165 180 167 138 194 113 147 188 156 159 159 141 156 174 181 187 146 106 179 184 135 164 172 122 167 196 184 173 172 153 107 136 133 174 175 193 187 188 146 108 112 105 150 134 145 130 120 157 102 165 140 138 129 111 126 196 